nP = 2;
nT = 5;
nC1 = 5;
nC2 = 8;
nA = 75;
nD = 3;

arc_from = [1, 1, 1, 1, 1, 2, 2, 2, 2, 2, 3, 3, 3, 3, 3, 4, 4, 4, 4, 4, 5, 5, 5, 5, 5, 6, 6, 6, 6, 6, 7, 7, 7, 7, 7, 8, 8, 8, 8, 8, 8, 8, 8, 9, 9, 9, 9, 9, 9, 9, 9, 10, 10, 10, 10, 10, 10, 10, 10, 11, 11, 11, 11, 11, 11, 11, 11, 12, 12, 12, 12, 12, 12, 12, 12];
arc_to = [3, 4, 5, 6, 7, 3, 4, 5, 6, 7, 8, 9, 10, 11, 12, 8, 9, 10, 11, 12, 8, 9, 10, 11, 12, 8, 9, 10, 11, 12, 8, 9, 10, 11, 12, 13, 14, 15, 16, 17, 18, 19, 20, 13, 14, 15, 16, 17, 18, 19, 20, 13, 14, 15, 16, 17, 18, 19, 20, 13, 14, 15, 16, 17, 18, 19, 20, 13, 14, 15, 16, 17, 18, 19, 20];

supply = [347.12, 347.12, 0.00, 0.00, 0.00, 0.00, 0.00, 0.00, 0.00, 0.00, 0.00, 0.00, 0.00, 0.00, 0.00, 0.00, 0.00, 0.00, 0.00, 0.00];
demand = [0.00, 0.00, 0.00, 0.00, 0.00, 0.00, 0.00, 61.05, 61.74, 68.14, 62.15, 78.02, 60.76, 70.72, 66.64, 77.04, 63.19, 66.74, 66.68, 64.90];

max_capacity = [795, 1414, 3181];

install_cost = array2d(1..nA, 1..nD, [
  20, 24, 32,
  50, 62, 78,
  20, 24, 32,
  50, 62, 78,
  20, 24, 32,
  50, 62, 78,
  20, 24, 32,
  50, 62, 78,
  20, 24, 32,
  50, 62, 78,
  20, 24, 32,
  50, 62, 78,
  20, 24, 32,
  50, 62, 78,
  20, 24, 32,
  50, 62, 78,
  20, 24, 32,
  50, 62, 78,
  20, 24, 32,
  50, 62, 78,
  20, 24, 32,
  50, 62, 78,
  20, 24, 32,
  50, 62, 78,
  20, 24, 32,
  50, 62, 78,
  20, 24, 32,
  50, 62, 78,
  20, 24, 32,
  50, 62, 78,
  20, 24, 32,
  50, 62, 78,
  20, 24, 32,
  50, 62, 78,
  20, 24, 32,
  50, 62, 78,
  20, 24, 32,
  50, 62, 78,
  20, 24, 32,
  50, 62, 78,
  20, 24, 32,
  50, 62, 78,
  20, 24, 32,
  50, 62, 78,
  20, 24, 32,
  50, 62, 78,
  20, 24, 32,
  50, 62, 78,
  20, 24, 32,
  50, 62, 78,
  20, 24, 32,
  50, 62, 78,
  20, 24, 32,
  50, 62, 78,
  20, 24, 32,
  50, 62, 78,
  20, 24, 32,
  50, 62, 78,
  20, 24, 32,
  50, 62, 78,
  20, 24, 32,
  50, 62, 78,
  20, 24, 32,
  50, 62, 78,
  20, 24, 32,
  50, 62, 78,
  20, 24, 32,
  50, 62, 78,
  20, 24, 32,
  50, 62, 78,
  20, 24, 32,
  50, 62, 78,
  20, 24, 32,
  50, 62, 78,
  20, 24, 32
]);

trans_cost = [4.37, 7.50, 6.42, 3.74, 5.13, 8.48, 2.36, 5.36, 7.90, 4.70, 4.98, 5.86, 8.24, 5.04, 5.33, 5.35, 9.31, 9.28, 7.51, 6.58, 7.11, 8.24, 4.60, 7.76, 4.12, 5.04, 7.36, 3.86, 5.79, 4.71, 5.62, 1.80, 3.34, 4.95, 7.39, 5.74, 6.00, 7.03, 4.68, 6.43, 4.79, 3.41, 5.41, 6.86, 6.51, 5.98, 9.59, 6.62, 7.47, 9.36, 4.06, 4.44, 8.62, 4.80, 6.04, 7.60, 7.34, 8.63, 8.24, 7.60, 4.84, 7.19, 6.47, 4.01, 8.13, 7.21, 6.07, 5.65, 4.20, 6.30, 6.70, 4.75, 7.74, 4.35, 2.82];

% Metadata: {'tamaño': 'pequeña', 'numero': 1, 'grupo': 5, 'demanda_total': 867.8, 'suministro_total': 694.24, 'factor_holgura': 0.8, 'num_arcos': 75}
% Total supply: 694.24
% Total demand: 867.80
% Balance factor: 0.80
=== RESULTADOS OPTIMIZACIÓN RED DE TUBERÍAS - GRUPO 5 (CP-SAT) ===

---COSTOS ---
Costo Instalación:
$390.00
Costo Transporte:
$263397.00
Penalización:
$536670.00
COSTO TOTAL:
$800457.00
ESTADÍSTICAS DE RED
Nodos: P=2 T=5 C1=5 C2=8 (Total: 20)
Arcos totales: 75
Arcos activos: 9
Utilización: 12%
FLUJOS
Suministro total: 694.24 1/min
Demanda total: 867.7700000000001 1/min
Flujo enviado: 331.1 1/min
Demanda satisfecha: 331.1000000000001 l/min
Demanda no satisfecha:
536.67 1/min
Eficiencia: 38.15527155813177%
DIAMETROS UTILIZADOS
D75mm: 9 arcos
D100mm: 0 arcos
D150mm: 0 arcos
DETALLE DE ARCOS ACTIVOS
Arco 1: 1 -> 3 |
Flujo: 62.15 1/min |
Diámetro: 75mm
Arco
4: 1 -> 6 | Flujo: 146.16 1/min |
Diámetro: 75mm
Arco 7: 2 -> 4 | Flujo: 61.05 1/min | Diámetro: 75mm
Arco 10: 2
-> 7 | Flujo: 61.74 1/min |
Diámetro: 75mm
Arco 14:3 -> 11 | Flujo: 62.15 1/min | Diámetro: 75mm
Arco 16: 4 -> 8
| Flujo: 61.05 1/min |
Diámetro: 75mm
Arco 28: 6 -> 10 |
Flujo: 68.14 1/min |
Diámetro: 75mm
Arco 30: 6 -> 12 |
Flujo: 78.02 1/min |
Diámetro: 75mm
Arco
32: 7 -> 9 | Flujo: 61.74 1/min |
Diámetro: 75mm